param set_len = 32;
param target_sum = 9177404071;
param values := [1] 507905866 [2] 189411039 [3] 272021681 [4] 55884057 [5] 624557360 [6] 492158085 [7] 562143314 [8] 53797494 [9] 865013803 [10] 240401064 [11] 1025326614 [12] 580797336 [13] 695975238 [14] 839564066 [15] 163214517 [16] 187789812 [17] 477814728 [18] 247315509 [19] 959611184 [20] 155721098 [21] 773801675 [22] 952201730 [23] 418408400 [24] 823497205 [25] 355050317 [26] 3180513 [27] 1035295990 [28] 1027609956 [29] 544572244 [30] 131105419 [31] 576383392 [32] 452851525 ;
